benchmark/results/graph__10-1000-0.10-04_6/graph__10-1000-0.10-04_6_QuintonOs_Benders_primal_sub.lp
\ This file has been generated by DOcplex
\ ENCODING=ISO-8859-1
\Problem name: Quinton Bounded Benders_primal_sub

Maximize
 obj: tau
Subject To
 c1: tau <= 0.001319261214
 c2: y_a0_proc_1 + y_a0_proc_2 + y_a0_proc_3 - tau = 0
 c3: y_a0_proc_1 <= 0
 c4: y_a0_proc_2 <= 0
 c5: y_a0_proc_3 <= 1
 c6: tau <= 0.001157407407
 c7: y_a1_proc_0 + y_a1_proc_2 - tau = 0
 c8: y_a1_proc_0 <= 0
 c9: y_a1_proc_2 <= 1
 c10: tau <= 0.000817661488
 c11: y_a2_proc_3 - tau = 0
 c12: y_a2_proc_3 <= 1
 c13: tau <= 0.002915451895
 c14: y_a3_proc_0 + y_a3_proc_1 + y_a3_proc_2 + y_a3_proc_3 - tau = 0
 c15: y_a3_proc_0 <= 1
 c16: y_a3_proc_1 <= 0
 c17: y_a3_proc_2 <= 0
 c18: y_a3_proc_3 <= 0
 c19: tau <= 0.002604166667
 c20: y_a4_proc_0 + y_a4_proc_2 + y_a4_proc_3 - tau = 0
 c21: y_a4_proc_0 <= 0
 c22: y_a4_proc_2 <= 1
 c23: y_a4_proc_3 <= 0
 c24: tau <= 0.001470588235
 c25: y_a5_proc_0 + y_a5_proc_1 + y_a5_proc_2 - tau = 0
 c26: y_a5_proc_0 <= 1
 c27: y_a5_proc_1 <= 0
 c28: y_a5_proc_2 <= 0
 c29: tau <= 0.001782531194
 c30: y_a6_proc_0 + y_a6_proc_1 + y_a6_proc_2 + y_a6_proc_3 - tau = 0
 c31: y_a6_proc_0 <= 0
 c32: y_a6_proc_1 <= 1
 c33: y_a6_proc_2 <= 0
 c34: y_a6_proc_3 <= 0
 c35: tau <= 0.001257861635
 c36: y_a7_proc_0 + y_a7_proc_1 + y_a7_proc_2 + y_a7_proc_3 - tau = 0
 c37: y_a7_proc_0 <= 1
 c38: y_a7_proc_1 <= 0
 c39: y_a7_proc_2 <= 0
 c40: y_a7_proc_3 <= 0
 c41: tau <= 0.000882612533
 c42: y_a8_proc_1 + y_a8_proc_2 + y_a8_proc_3 - tau = 0
 c43: y_a8_proc_1 <= 1
 c44: y_a8_proc_2 <= 0
 c45: y_a8_proc_3 <= 0
 c46: tau <= 0.000896057348
 c47: y_a9_proc_0 + y_a9_proc_1 + y_a9_proc_2 - tau = 0
 c48: y_a9_proc_0 <= 1
 c49: y_a9_proc_1 <= 0
 c50: y_a9_proc_2 <= 0
 c51: u_a1 - u_a0 - 998 y_a0_proc_1 - 1093 y_a0_proc_2 - 758 y_a0_proc_3 >= 0
 c52: u_a2 - u_a1 - 978 y_a1_proc_0 - 864 y_a1_proc_2 >= 0
 c53: u_a2 - u_a3 - 343 y_a3_proc_0 - 852 y_a3_proc_1 - 691 y_a3_proc_2
      - 1264 y_a3_proc_3 >= 0
 c54: u_a0 - u_a4 - 628 y_a4_proc_0 - 384 y_a4_proc_2 - 973 y_a4_proc_3 >= 0
 c55: u_a4 - u_a5 - 680 y_a5_proc_0 - 796 y_a5_proc_1 - 843 y_a5_proc_2 >= 0
 c56: u_a6 - u_a3 - 343 y_a3_proc_0 - 852 y_a3_proc_1 - 691 y_a3_proc_2
      - 1264 y_a3_proc_3 >= 0
 c57: u_a0 - u_a7 - 795 y_a7_proc_0 - 1182 y_a7_proc_1 - 1202 y_a7_proc_2
      - 1051 y_a7_proc_3 >= 0
 c58: u_a8 - u_a2 - 1223 y_a2_proc_3 >= -1
 c59: u_a0 - u_a9 - 1116 y_a9_proc_0 - 1061 y_a9_proc_1 - 948 y_a9_proc_2 >= 0
 c60: - 978 y_a1_proc_0 - 864 y_a1_proc_2 >= -1
 c61: u_a7 - u_a0 - 998 y_a0_proc_1 - 1093 y_a0_proc_2 - 758 y_a0_proc_3 >= -1
 c62: u_a8 - u_a6 - 674 y_a6_proc_0 - 561 y_a6_proc_1 - 860 y_a6_proc_2
      - 1050 y_a6_proc_3 >= -1
 c63: u_a3 - u_a8 - 1133 y_a8_proc_1 - 804 y_a8_proc_2 - 841 y_a8_proc_3 >= 0
 c64: u_a5 - u_a2 - 1223 y_a2_proc_3 >= -1
 c65: u_a4 - u_a7 - 795 y_a7_proc_0 - 1182 y_a7_proc_1 - 1202 y_a7_proc_2
      - 1051 y_a7_proc_3 >= 0
 c66: u_a9 - u_a0 - 998 y_a0_proc_1 - 1093 y_a0_proc_2 - 758 y_a0_proc_3 >= -1
 c67: u_a7 - u_a9 - 1116 y_a9_proc_0 - 1061 y_a9_proc_1 - 948 y_a9_proc_2 >= 0
 c68: u_a7 - u_a8 - 1133 y_a8_proc_1 - 804 y_a8_proc_2 - 841 y_a8_proc_3 >= -1
 c69: u_a1 - u_a0 - 1093 y_a0_proc_2 >= -1278
 c70: u_a0 - u_a1 - 864 y_a1_proc_2 >= -1251
 c71: u_a2 - u_a0 - 758 y_a0_proc_3 >= 0
 c72: u_a0 - u_a2 - 1223 y_a2_proc_3 >= -1
 c73: u_a3 - u_a0 - 1093 y_a0_proc_2 >= -2542
 c74: u_a3 - u_a0 - 758 y_a0_proc_3 >= -1278
 c75: u_a3 - u_a0 - 998 y_a0_proc_1 >= -2542
 c76: u_a0 - u_a3 - 691 y_a3_proc_2 >= -2515
 c77: u_a0 - u_a3 - 1264 y_a3_proc_3 >= -1251
 c78: u_a0 - u_a3 - 852 y_a3_proc_1 >= -2515
 c79: u_a4 - u_a0 - 1093 y_a0_proc_2 >= -1278
 c80: u_a4 - u_a0 - 758 y_a0_proc_3 >= -1278
 c81: u_a0 - u_a4 - 384 y_a4_proc_2 >= -1251
 c82: u_a0 - u_a4 - 973 y_a4_proc_3 >= -1251
 c83: u_a5 - u_a0 - 1093 y_a0_proc_2 >= -2542
 c84: u_a5 - u_a0 - 998 y_a0_proc_1 >= -2542
 c85: u_a0 - u_a5 - 843 y_a5_proc_2 >= -2515
 c86: u_a0 - u_a5 - 796 y_a5_proc_1 >= -2515
 c87: u_a6 - u_a0 - 1093 y_a0_proc_2 >= -2542
 c88: u_a6 - u_a0 - 758 y_a0_proc_3 >= -1278
 c89: u_a6 - u_a0 - 998 y_a0_proc_1 >= -1278
 c90: u_a0 - u_a6 - 860 y_a6_proc_2 >= -2515
 c91: u_a0 - u_a6 - 1050 y_a6_proc_3 >= -1251
 c92: u_a0 - u_a6 - 561 y_a6_proc_1 >= -1251
 c93: u_a7 - u_a0 - 1093 y_a0_proc_2 >= -2542
 c94: u_a7 - u_a0 - 758 y_a0_proc_3 >= -1278
 c95: u_a7 - u_a0 - 998 y_a0_proc_1 >= -2542
 c96: u_a0 - u_a7 - 1202 y_a7_proc_2 >= -2515
 c97: u_a0 - u_a7 - 1051 y_a7_proc_3 >= -1251
 c98: u_a0 - u_a7 - 1182 y_a7_proc_1 >= -2515
 c99: u_a8 - u_a0 - 1093 y_a0_proc_2 >= -2542
 c100: u_a8 - u_a0 - 758 y_a0_proc_3 >= -1278
 c101: u_a8 - u_a0 - 998 y_a0_proc_1 >= -1278
 c102: u_a0 - u_a8 - 804 y_a8_proc_2 >= -2515
 c103: u_a0 - u_a8 - 841 y_a8_proc_3 >= -1251
 c104: u_a0 - u_a8 - 1133 y_a8_proc_1 >= -1251
 c105: u_a9 - u_a0 - 1093 y_a0_proc_2 >= -2542
 c106: u_a9 - u_a0 - 998 y_a0_proc_1 >= -2542
 c107: u_a0 - u_a9 - 948 y_a9_proc_2 >= -2515
 c108: u_a0 - u_a9 - 1061 y_a9_proc_1 >= -2515
 c109: u_a3 - u_a1 - 864 y_a1_proc_2 >= -1278
 c110: u_a3 - u_a1 - 978 y_a1_proc_0 >= -1278
 c111: u_a1 - u_a3 - 691 y_a3_proc_2 >= -1251
 c112: u_a1 - u_a3 - 343 y_a3_proc_0 >= -1251
 c113: u_a4 - u_a1 - 864 y_a1_proc_2 >= -1
 c114: u_a4 - u_a1 - 978 y_a1_proc_0 >= -2529
 c115: u_a1 - u_a4 - 384 y_a4_proc_2 >= 0
 c116: u_a1 - u_a4 - 628 y_a4_proc_0 >= -2528
 c117: u_a5 - u_a1 - 864 y_a1_proc_2 >= -1278
 c118: u_a5 - u_a1 - 978 y_a1_proc_0 >= -1278
 c119: u_a1 - u_a5 - 843 y_a5_proc_2 >= -1251
 c120: u_a1 - u_a5 - 680 y_a5_proc_0 >= -1251
 c121: u_a6 - u_a1 - 864 y_a1_proc_2 >= -1278
 c122: u_a6 - u_a1 - 978 y_a1_proc_0 >= -2542
 c123: u_a1 - u_a6 - 860 y_a6_proc_2 >= -1251
 c124: u_a1 - u_a6 - 674 y_a6_proc_0 >= -2515
 c125: u_a7 - u_a1 - 864 y_a1_proc_2 >= -1278
 c126: u_a7 - u_a1 - 978 y_a1_proc_0 >= -1278
 c127: u_a1 - u_a7 - 1202 y_a7_proc_2 >= -1251
 c128: u_a1 - u_a7 - 795 y_a7_proc_0 >= -1251
 c129: u_a8 - u_a1 - 864 y_a1_proc_2 >= -1278
 c130: u_a1 - u_a8 - 804 y_a8_proc_2 >= -1251
 c131: u_a9 - u_a1 - 864 y_a1_proc_2 >= -1251
 c132: u_a9 - u_a1 - 978 y_a1_proc_0 >= -1251
 c133: u_a1 - u_a9 - 948 y_a9_proc_2 >= -1278
 c134: u_a1 - u_a9 - 1116 y_a9_proc_0 >= -1278
 c135: u_a3 - u_a2 - 1223 y_a2_proc_3 >= -1278
 c136: u_a2 - u_a3 - 1264 y_a3_proc_3 >= -1251
 c137: u_a4 - u_a2 - 1223 y_a2_proc_3 >= -1278
 c138: u_a2 - u_a4 - 973 y_a4_proc_3 >= -1251
 c139: u_a6 - u_a2 - 1223 y_a2_proc_3 >= -1278
 c140: u_a2 - u_a6 - 1050 y_a6_proc_3 >= -1251
 c141: u_a7 - u_a2 - 1223 y_a2_proc_3 >= -1278
 c142: u_a2 - u_a7 - 1051 y_a7_proc_3 >= -1251
 c143: u_a8 - u_a2 - 1223 y_a2_proc_3 >= -1278
 c144: u_a2 - u_a8 - 841 y_a8_proc_3 >= -1251
 c145: u_a4 - u_a3 - 691 y_a3_proc_2 >= -1278
 c146: u_a4 - u_a3 - 1264 y_a3_proc_3 >= -2542
 c147: u_a4 - u_a3 - 343 y_a3_proc_0 >= -1278
 c148: u_a3 - u_a4 - 384 y_a4_proc_2 >= -1251
 c149: u_a3 - u_a4 - 973 y_a4_proc_3 >= -2515
 c150: u_a3 - u_a4 - 628 y_a4_proc_0 >= -1251
 c151: u_a5 - u_a3 - 691 y_a3_proc_2 >= -2529
 c152: u_a5 - u_a3 - 343 y_a3_proc_0 >= -1
 c153: u_a5 - u_a3 - 852 y_a3_proc_1 >= -2529
 c154: u_a3 - u_a5 - 843 y_a5_proc_2 >= -2528
 c155: u_a3 - u_a5 - 680 y_a5_proc_0 >= 0
 c156: u_a3 - u_a5 - 796 y_a5_proc_1 >= -2528
 c157: u_a6 - u_a3 - 691 y_a3_proc_2 >= -2542
 c158: u_a6 - u_a3 - 1264 y_a3_proc_3 >= -2542
 c159: u_a6 - u_a3 - 343 y_a3_proc_0 >= -1278
 c160: u_a6 - u_a3 - 852 y_a3_proc_1 >= -1278
 c161: u_a3 - u_a6 - 860 y_a6_proc_2 >= -2515
 c162: u_a3 - u_a6 - 1050 y_a6_proc_3 >= -2515
 c163: u_a3 - u_a6 - 674 y_a6_proc_0 >= -1251
 c164: u_a3 - u_a6 - 561 y_a6_proc_1 >= -1251
 c165: u_a7 - u_a3 - 691 y_a3_proc_2 >= -2529
 c166: u_a7 - u_a3 - 1264 y_a3_proc_3 >= -2529
 c167: u_a7 - u_a3 - 343 y_a3_proc_0 >= -1
 c168: u_a7 - u_a3 - 852 y_a3_proc_1 >= -2529
 c169: u_a3 - u_a7 - 1202 y_a7_proc_2 >= -2528
 c170: u_a3 - u_a7 - 1051 y_a7_proc_3 >= -2528
 c171: u_a3 - u_a7 - 795 y_a7_proc_0 >= 0
 c172: u_a3 - u_a7 - 1182 y_a7_proc_1 >= -2528
 c173: u_a8 - u_a3 - 691 y_a3_proc_2 >= -2542
 c174: u_a8 - u_a3 - 1264 y_a3_proc_3 >= -2542
 c175: u_a8 - u_a3 - 852 y_a3_proc_1 >= -1278
 c176: u_a3 - u_a8 - 804 y_a8_proc_2 >= -2515
 c177: u_a3 - u_a8 - 841 y_a8_proc_3 >= -2515
 c178: u_a3 - u_a8 - 1133 y_a8_proc_1 >= -1251
 c179: u_a9 - u_a3 - 691 y_a3_proc_2 >= -2529
 c180: u_a9 - u_a3 - 343 y_a3_proc_0 >= -1
 c181: u_a9 - u_a3 - 852 y_a3_proc_1 >= -2529
 c182: u_a3 - u_a9 - 948 y_a9_proc_2 >= -2528
 c183: u_a3 - u_a9 - 1116 y_a9_proc_0 >= 0
 c184: u_a3 - u_a9 - 1061 y_a9_proc_1 >= -2528
 c185: u_a5 - u_a4 - 384 y_a4_proc_2 >= -1278
 c186: u_a5 - u_a4 - 628 y_a4_proc_0 >= -1278
 c187: u_a4 - u_a5 - 843 y_a5_proc_2 >= -1251
 c188: u_a4 - u_a5 - 680 y_a5_proc_0 >= -1251
 c189: u_a6 - u_a4 - 384 y_a4_proc_2 >= -1278
 c190: u_a6 - u_a4 - 973 y_a4_proc_3 >= -2542
 c191: u_a6 - u_a4 - 628 y_a4_proc_0 >= -2542
 c192: u_a4 - u_a6 - 860 y_a6_proc_2 >= -1251
 c193: u_a4 - u_a6 - 1050 y_a6_proc_3 >= -2515
 c194: u_a4 - u_a6 - 674 y_a6_proc_0 >= -2515
 c195: u_a7 - u_a4 - 384 y_a4_proc_2 >= -1278
 c196: u_a7 - u_a4 - 973 y_a4_proc_3 >= -2542
 c197: u_a7 - u_a4 - 628 y_a4_proc_0 >= -1278
 c198: u_a4 - u_a7 - 1202 y_a7_proc_2 >= -1251
 c199: u_a4 - u_a7 - 1051 y_a7_proc_3 >= -2515
 c200: u_a4 - u_a7 - 795 y_a7_proc_0 >= -1251
 c201: u_a8 - u_a4 - 384 y_a4_proc_2 >= -1278
 c202: u_a8 - u_a4 - 973 y_a4_proc_3 >= -2542
 c203: u_a4 - u_a8 - 804 y_a8_proc_2 >= -1251
 c204: u_a4 - u_a8 - 841 y_a8_proc_3 >= -2515
 c205: u_a9 - u_a4 - 384 y_a4_proc_2 >= -1278
 c206: u_a9 - u_a4 - 628 y_a4_proc_0 >= -1278
 c207: u_a4 - u_a9 - 948 y_a9_proc_2 >= -1251
 c208: u_a4 - u_a9 - 1116 y_a9_proc_0 >= -1251
 c209: u_a6 - u_a5 - 843 y_a5_proc_2 >= -2515
 c210: u_a6 - u_a5 - 680 y_a5_proc_0 >= -1251
 c211: u_a6 - u_a5 - 796 y_a5_proc_1 >= -1251
 c212: u_a5 - u_a6 - 860 y_a6_proc_2 >= -2542
 c213: u_a5 - u_a6 - 674 y_a6_proc_0 >= -1278
 c214: u_a5 - u_a6 - 561 y_a6_proc_1 >= -1278
 c215: u_a7 - u_a5 - 843 y_a5_proc_2 >= -2529
 c216: u_a7 - u_a5 - 680 y_a5_proc_0 >= -1
 c217: u_a7 - u_a5 - 796 y_a5_proc_1 >= -2529
 c218: u_a5 - u_a7 - 1202 y_a7_proc_2 >= -2528
 c219: u_a5 - u_a7 - 795 y_a7_proc_0 >= 0
 c220: u_a5 - u_a7 - 1182 y_a7_proc_1 >= -2528
 c221: u_a8 - u_a5 - 843 y_a5_proc_2 >= -2542
 c222: u_a8 - u_a5 - 796 y_a5_proc_1 >= -1278
 c223: u_a5 - u_a8 - 804 y_a8_proc_2 >= -2515
 c224: u_a5 - u_a8 - 1133 y_a8_proc_1 >= -1251
 c225: u_a9 - u_a5 - 843 y_a5_proc_2 >= -2529
 c226: u_a9 - u_a5 - 680 y_a5_proc_0 >= -1
 c227: u_a9 - u_a5 - 796 y_a5_proc_1 >= -2529
 c228: u_a5 - u_a9 - 948 y_a9_proc_2 >= -2528
 c229: u_a5 - u_a9 - 1116 y_a9_proc_0 >= 0
 c230: u_a5 - u_a9 - 1061 y_a9_proc_1 >= -2528
 c231: u_a7 - u_a6 - 860 y_a6_proc_2 >= -2542
 c232: u_a7 - u_a6 - 1050 y_a6_proc_3 >= -2542
 c233: u_a7 - u_a6 - 674 y_a6_proc_0 >= -1278
 c234: u_a7 - u_a6 - 561 y_a6_proc_1 >= -1278
 c235: u_a6 - u_a7 - 1202 y_a7_proc_2 >= -2515
 c236: u_a6 - u_a7 - 1051 y_a7_proc_3 >= -2515
 c237: u_a6 - u_a7 - 795 y_a7_proc_0 >= -1251
 c238: u_a6 - u_a7 - 1182 y_a7_proc_1 >= -1251
 c239: u_a8 - u_a6 - 860 y_a6_proc_2 >= -2529
 c240: u_a8 - u_a6 - 1050 y_a6_proc_3 >= -2529
 c241: u_a8 - u_a6 - 561 y_a6_proc_1 >= -1
 c242: u_a6 - u_a8 - 804 y_a8_proc_2 >= -2528
 c243: u_a6 - u_a8 - 841 y_a8_proc_3 >= -2528
 c244: u_a6 - u_a8 - 1133 y_a8_proc_1 >= 0
 c245: u_a9 - u_a6 - 860 y_a6_proc_2 >= -2542
 c246: u_a9 - u_a6 - 674 y_a6_proc_0 >= -1278
 c247: u_a9 - u_a6 - 561 y_a6_proc_1 >= -1278
 c248: u_a6 - u_a9 - 948 y_a9_proc_2 >= -2515
 c249: u_a6 - u_a9 - 1116 y_a9_proc_0 >= -1251
 c250: u_a6 - u_a9 - 1061 y_a9_proc_1 >= -1251
 c251: u_a8 - u_a7 - 1202 y_a7_proc_2 >= -2542
 c252: u_a8 - u_a7 - 1051 y_a7_proc_3 >= -2542
 c253: u_a8 - u_a7 - 1182 y_a7_proc_1 >= -1278
 c254: u_a7 - u_a8 - 804 y_a8_proc_2 >= -2515
 c255: u_a7 - u_a8 - 841 y_a8_proc_3 >= -2515
 c256: u_a7 - u_a8 - 1133 y_a8_proc_1 >= -1251
 c257: u_a9 - u_a7 - 1202 y_a7_proc_2 >= -2529
 c258: u_a9 - u_a7 - 795 y_a7_proc_0 >= -1
 c259: u_a9 - u_a7 - 1182 y_a7_proc_1 >= -2529
 c260: u_a7 - u_a9 - 948 y_a9_proc_2 >= -2528
 c261: u_a7 - u_a9 - 1116 y_a9_proc_0 >= 0
 c262: u_a7 - u_a9 - 1061 y_a9_proc_1 >= -2528
 c263: u_a9 - u_a8 - 804 y_a8_proc_2 >= -2515
 c264: u_a9 - u_a8 - 1133 y_a8_proc_1 >= -1251
 c265: u_a8 - u_a9 - 948 y_a9_proc_2 >= -2542
 c266: u_a8 - u_a9 - 1061 y_a9_proc_1 >= -1278

Bounds
End
