benchmark/results/graph__10-1000-0.10-04_6/graph__10-1000-0.10-04_6_QuintonOs_Benders_primal_sub.txt
solution for: Quinton Bounded Benders_primal_sub
objective: 0.00025582
status: OPTIMAL_SOLUTION(2)
u_a0=0.761
u_a1=0.955
u_a2=1.176
u_a3=0.779
u_a4=0.663
u_a5=0.489
u_a6=0.866
u_a7=0.285
u_a8=0.489
tau=0.000
y_a0_proc_3=0.000
y_a1_proc_2=0.000
y_a2_proc_3=0.000
y_a3_proc_0=0.000
y_a4_proc_2=0.000
y_a5_proc_0=0.000
y_a6_proc_1=0.000
y_a7_proc_0=0.000
y_a8_proc_1=0.000
y_a9_proc_0=0.000
